solution status: optimal solution found
objective value:                     216811.751401597
d11(0,0)                                            1 	(obj:0)
d11(1,1)                                            1 	(obj:0)
d11(2,3)                                            1 	(obj:0)
d11(2,5)                                            1 	(obj:0)
d11(3,7)                                            1 	(obj:0)
d11(3,8)                                            1 	(obj:0)
d11(3,9)                                            1 	(obj:0)
d11(3,10)                                           1 	(obj:0)
d11(3,11)                                           1 	(obj:0)
d11(3,12)                                           1 	(obj:0)
d11(3,13)                                           1 	(obj:0)
d11(3,14)                                           1 	(obj:0)
d11(4,15)                                           1 	(obj:0)
d11(4,17)                                           1 	(obj:0)
d11(4,18)                                           1 	(obj:0)
d11(4,19)                                           1 	(obj:0)
d11(4,21)                                           1 	(obj:0)
d11(4,23)                                           1 	(obj:0)
d11(4,24)                                           1 	(obj:0)
d11(4,25)                                           1 	(obj:0)
d11(4,27)                                           1 	(obj:0)
d11(4,29)                                           1 	(obj:0)
d11(4,30)                                           1 	(obj:0)
d11(5,31)                                           1 	(obj:0)
d11(5,32)                                           1 	(obj:0)
d11(5,33)                                           1 	(obj:0)
d11(5,34)                                           1 	(obj:0)
d11(5,35)                                           1 	(obj:0)
d11(5,36)                                           1 	(obj:0)
d11(5,37)                                           1 	(obj:0)
d11(5,38)                                           1 	(obj:0)
d11(5,39)                                           1 	(obj:0)
d11(5,40)                                           1 	(obj:0)
d11(5,41)                                           1 	(obj:0)
d11(5,42)                                           1 	(obj:0)
d11(5,43)                                           1 	(obj:0)
d11(5,44)                                           1 	(obj:0)
d11(5,45)                                           1 	(obj:0)
d11(5,46)                                           1 	(obj:0)
d11(5,47)                                           1 	(obj:0)
d11(5,48)                                           1 	(obj:0)
d11(5,49)                                           1 	(obj:0)
d11(5,50)                                           1 	(obj:0)
d11(5,51)                                           1 	(obj:0)
d11(5,52)                                           1 	(obj:0)
d11(5,53)                                           1 	(obj:0)
d11(5,54)                                           1 	(obj:0)
d11(5,55)                                           1 	(obj:0)
d11(5,56)                                           1 	(obj:0)
d11(5,57)                                           1 	(obj:0)
d11(5,58)                                           1 	(obj:0)
d11(5,59)                                           1 	(obj:0)
d11(5,60)                                           1 	(obj:0)
d11(5,61)                                           1 	(obj:0)
d11(5,62)                                           1 	(obj:0)
d12(2,4)                                            1 	(obj:0)
d12(2,6)                                            1 	(obj:0)
d12(6,63)                                           1 	(obj:0)
d12(6,64)                                           1 	(obj:0)
d12(6,65)                                           1 	(obj:0)
d12(6,66)                                           1 	(obj:0)
d12(6,67)                                           1 	(obj:0)
d12(6,68)                                           1 	(obj:0)
d12(6,69)                                           1 	(obj:0)
d12(6,70)                                           1 	(obj:0)
d12(6,71)                                           1 	(obj:0)
d12(6,72)                                           1 	(obj:0)
d12(6,73)                                           1 	(obj:0)
d12(6,74)                                           1 	(obj:0)
d12(6,75)                                           1 	(obj:0)
d12(6,76)                                           1 	(obj:0)
d12(6,77)                                           1 	(obj:0)
d12(6,78)                                           1 	(obj:0)
d12(6,79)                                           1 	(obj:0)
d12(6,80)                                           1 	(obj:0)
d12(6,81)                                           1 	(obj:0)
d12(6,82)                                           1 	(obj:0)
d12(6,83)                                           1 	(obj:0)
d12(6,84)                                           1 	(obj:0)
d12(6,85)                                           1 	(obj:0)
d12(6,86)                                           1 	(obj:0)
d12(6,87)                                           1 	(obj:0)
d12(6,88)                                           1 	(obj:0)
d12(6,89)                                           1 	(obj:0)
d12(6,90)                                           1 	(obj:0)
d12(6,91)                                           1 	(obj:0)
d12(6,92)                                           1 	(obj:0)
d12(6,93)                                           1 	(obj:0)
d12(6,94)                                           1 	(obj:0)
d12(6,95)                                           1 	(obj:0)
d12(6,96)                                           1 	(obj:0)
d12(6,97)                                           1 	(obj:0)
d12(6,98)                                           1 	(obj:0)
d12(6,99)                                           1 	(obj:0)
d12(6,100)                                          1 	(obj:0)
d12(6,101)                                          1 	(obj:0)
d12(6,102)                                          1 	(obj:0)
d12(6,103)                                          1 	(obj:0)
d12(6,104)                                          1 	(obj:0)
d12(6,105)                                          1 	(obj:0)
d12(6,106)                                          1 	(obj:0)
d12(6,107)                                          1 	(obj:0)
d12(6,108)                                          1 	(obj:0)
d12(6,109)                                          1 	(obj:0)
d12(6,110)                                          1 	(obj:0)
d12(6,111)                                          1 	(obj:0)
d12(6,112)                                          1 	(obj:0)
d12(6,113)                                          1 	(obj:0)
d12(6,114)                                          1 	(obj:0)
d12(6,115)                                          1 	(obj:0)
d12(6,116)                                          1 	(obj:0)
d12(6,117)                                          1 	(obj:0)
d12(6,118)                                          1 	(obj:0)
d12(6,119)                                          1 	(obj:0)
d12(6,120)                                          1 	(obj:0)
d12(6,121)                                          1 	(obj:0)
d12(6,122)                                          1 	(obj:0)
d12(6,123)                                          1 	(obj:0)
d12(6,124)                                          1 	(obj:0)
d12(6,125)                                          1 	(obj:0)
d12(6,126)                                          1 	(obj:0)
d21(4,15)                                           1 	(obj:0)
d21(4,16)                                           1 	(obj:0)
d21(4,17)                                           1 	(obj:0)
d21(4,19)                                           1 	(obj:0)
d21(4,23)                                           1 	(obj:0)
d21(5,31)                                           1 	(obj:0)
d21(5,32)                                           1 	(obj:0)
d21(5,33)                                           1 	(obj:0)
d21(5,34)                                           1 	(obj:0)
d21(5,35)                                           1 	(obj:0)
d21(5,36)                                           1 	(obj:0)
d21(5,37)                                           1 	(obj:0)
d21(5,39)                                           1 	(obj:0)
d21(5,40)                                           1 	(obj:0)
d21(5,41)                                           1 	(obj:0)
d21(5,43)                                           1 	(obj:0)
d21(5,47)                                           1 	(obj:0)
d21(5,48)                                           1 	(obj:0)
d21(5,49)                                           1 	(obj:0)
d21(5,51)                                           1 	(obj:0)
d21(5,55)                                           1 	(obj:0)
d21(6,63)                                           1 	(obj:0)
d21(6,64)                                           1 	(obj:0)
d21(6,65)                                           1 	(obj:0)
d21(6,66)                                           1 	(obj:0)
d21(6,67)                                           1 	(obj:0)
d21(6,68)                                           1 	(obj:0)
d21(6,69)                                           1 	(obj:0)
d21(6,70)                                           1 	(obj:0)
d21(6,71)                                           1 	(obj:0)
d21(6,72)                                           1 	(obj:0)
d21(6,73)                                           1 	(obj:0)
d21(6,74)                                           1 	(obj:0)
d21(6,75)                                           1 	(obj:0)
d21(6,76)                                           1 	(obj:0)
d21(6,79)                                           1 	(obj:0)
d21(6,80)                                           1 	(obj:0)
d21(6,81)                                           1 	(obj:0)
d21(6,82)                                           1 	(obj:0)
d21(6,83)                                           1 	(obj:0)
d21(6,84)                                           1 	(obj:0)
d21(6,85)                                           1 	(obj:0)
d21(6,87)                                           1 	(obj:0)
d21(6,88)                                           1 	(obj:0)
d21(6,89)                                           1 	(obj:0)
d21(6,91)                                           1 	(obj:0)
d21(6,95)                                           1 	(obj:0)
d21(6,96)                                           1 	(obj:0)
d21(6,97)                                           1 	(obj:0)
d21(6,98)                                           1 	(obj:0)
d21(6,99)                                           1 	(obj:0)
d21(6,100)                                          1 	(obj:0)
d21(6,103)                                          1 	(obj:0)
d21(6,104)                                          1 	(obj:0)
d21(6,105)                                          1 	(obj:0)
d21(6,107)                                          1 	(obj:0)
d21(6,111)                                          1 	(obj:0)
d21(6,112)                                          1 	(obj:0)
d21(6,113)                                          1 	(obj:0)
d21(6,115)                                          1 	(obj:0)
d21(6,119)                                          1 	(obj:0)
y2(6,99)                             352.894630409789 	(obj:0)
y2(6,100)                            1845.31953940973 	(obj:0)
y2(6,101)                            352.894630409789 	(obj:0)
y2(6,102)                            1845.31953940973 	(obj:0)
y2(6,103)                            352.894630409789 	(obj:0)
y2(6,104)                            1845.31953940973 	(obj:0)
y2(6,105)                            352.894630409789 	(obj:0)
y2(6,106)                            1845.31953940973 	(obj:0)
y2(6,107)                            352.894630409789 	(obj:0)
y2(6,108)                            1845.31953940973 	(obj:0)
y2(6,109)                            352.894630409789 	(obj:0)
y2(6,110)                            1845.31953940973 	(obj:0)
y2(6,111)                            352.894630409789 	(obj:0)
y2(6,112)                            1845.31953940973 	(obj:0)
y2(6,113)                            352.894630409789 	(obj:0)
y2(6,114)                            1845.31953940973 	(obj:0)
y2(6,115)                            352.894630409789 	(obj:0)
y2(6,116)                            1845.31953940973 	(obj:0)
y2(6,117)                            352.894630409789 	(obj:0)
y2(6,118)                            1845.31953940973 	(obj:0)
y2(6,119)                            352.894630409789 	(obj:0)
y2(6,120)                            1845.31953940973 	(obj:0)
y2(6,121)                            352.894630409789 	(obj:0)
y2(6,122)                            1845.31953940973 	(obj:0)
y2(6,123)                            352.894630409789 	(obj:0)
y2(6,124)                            1845.31953940973 	(obj:0)
y2(6,125)                            352.894630409789 	(obj:0)
y2(6,126)                            1845.31953940973 	(obj:0)
STE(1,1)                              8484.7501011112 	(obj:0)
STE(0,0)                                        11025 	(obj:0)
STE(1,2)                                        10143 	(obj:0)
STE(2,3)                             7602.75010111103 	(obj:0)
STE(2,4)                             8918.96418698752 	(obj:0)
STE(2,5)                             9260.99999999983 	(obj:0)
STE(2,6)                             10577.2140858763 	(obj:0)
STE(3,7)                             5062.50020222188 	(obj:0)
STE(3,8)                              6720.7501011107 	(obj:0)
STE(3,9)                             6378.71428809837 	(obj:0)
STE(3,10)                            8036.96418698719 	(obj:0)
STE(3,11)                            6720.75010111069 	(obj:0)
STE(3,12)                             8378.9999999995 	(obj:0)
STE(3,13)                            8036.96418698717 	(obj:0)
STE(3,14)                            9695.21408587632 	(obj:0)
STE(4,15)                            2522.25030333308 	(obj:0)
STE(4,16)                            4180.50020222188 	(obj:0)
STE(4,17)                             4180.5002022219 	(obj:0)
STE(4,18)                             5838.7501011107 	(obj:0)
STE(4,19)                            3838.46438920957 	(obj:0)
STE(4,20)                            5496.71428809837 	(obj:0)
STE(4,21)                            5496.71428809838 	(obj:0)
STE(4,22)                            7154.96418698719 	(obj:0)
STE(4,23)                            4180.50020222188 	(obj:0)
STE(4,24)                             5838.7501011107 	(obj:0)
STE(4,25)                             5838.7501011107 	(obj:0)
STE(4,26)                             7496.9999999995 	(obj:0)
STE(4,27)                            5496.71428809837 	(obj:0)
STE(4,28)                            7154.96418698717 	(obj:0)
STE(4,29)                            7154.96418698752 	(obj:0)
STE(4,30)                            8813.21408587634 	(obj:0)
STE(5,31)                           -17.9995955557362 	(obj:0)
STE(5,32)                            1640.25030333314 	(obj:0)
STE(5,33)                            1640.25030333307 	(obj:0)
STE(5,34)                            3298.50020222188 	(obj:0)
STE(5,35)                            1640.25030333308 	(obj:0)
STE(5,36)                             3298.5002022219 	(obj:0)
STE(5,37)                            3298.50020222188 	(obj:0)
STE(5,38)                             4956.7501011107 	(obj:0)
STE(5,39)                            1298.21449032075 	(obj:0)
STE(5,40)                            2956.46438920957 	(obj:0)
STE(5,41)                            2956.46438920955 	(obj:0)
STE(5,42)                            4614.71428809843 	(obj:0)
STE(5,43)                            2956.46438920957 	(obj:0)
STE(5,44)                            4614.71428809838 	(obj:0)
STE(5,45)                            4614.71428809837 	(obj:0)
STE(5,46)                            6272.96418698719 	(obj:0)
STE(5,47)                            1640.25030333307 	(obj:0)
STE(5,48)                            3298.50020222188 	(obj:0)
STE(5,49)                            3298.50020222188 	(obj:0)
STE(5,50)                             4956.7501011107 	(obj:0)
STE(5,51)                            3298.50020222188 	(obj:0)
STE(5,52)                            4956.75010111076 	(obj:0)
STE(5,53)                            4956.75010111069 	(obj:0)
STE(5,54)                            6614.99999998886 	(obj:0)
STE(5,55)                            2956.46438920955 	(obj:0)
STE(5,56)                            4614.71428809843 	(obj:0)
STE(5,57)                            4614.71428809835 	(obj:0)
STE(5,58)                            6272.96418698717 	(obj:0)
STE(5,59)                             4614.7142880987 	(obj:0)
STE(5,60)                            6272.96418698758 	(obj:0)
STE(5,61)                            6272.96418698752 	(obj:0)
STE(5,62)                            7931.21408587634 	(obj:0)
STE(6,63)                           -564.749696666436 	(obj:0)
STE(6,64)                            853.053966883503 	(obj:0)
STE(6,65)                            1093.50020222244 	(obj:0)
STE(6,66)                            2511.30386577238 	(obj:0)
STE(6,67)                            1093.50020222237 	(obj:0)
STE(6,68)                             2511.3038657723 	(obj:0)
STE(6,69)                            2751.75010111118 	(obj:0)
STE(6,70)                            4169.55376466112 	(obj:0)
STE(6,71)                            1093.50020222238 	(obj:0)
STE(6,72)                            2511.30386577232 	(obj:0)
STE(6,73)                             2751.7501011112 	(obj:0)
STE(6,74)                            4169.55376466114 	(obj:0)
STE(6,75)                            2751.75010111118 	(obj:0)
STE(6,76)                            4169.55376466112 	(obj:0)
STE(6,77)                                        4410 	(obj:0)
STE(6,78)                            5827.80366354994 	(obj:0)
STE(6,79)                             751.46438921005 	(obj:0)
STE(6,80)                            2169.26805275999 	(obj:0)
STE(6,81)                            2409.71428809887 	(obj:0)
STE(6,82)                            3827.51795164881 	(obj:0)
STE(6,83)                            2409.71428809885 	(obj:0)
STE(6,84)                            3827.51795164879 	(obj:0)
STE(6,85)                            4067.96418698773 	(obj:0)
STE(6,86)                            5485.76785053767 	(obj:0)
STE(6,87)                            2409.71428809887 	(obj:0)
STE(6,88)                            3827.51795164881 	(obj:0)
STE(6,89)                            4067.96418698768 	(obj:0)
STE(6,90)                            5485.76785053762 	(obj:0)
STE(6,91)                            4067.96418698767 	(obj:0)
STE(6,92)                            5485.76785053761 	(obj:0)
STE(6,93)                            5726.21408587649 	(obj:0)
STE(6,94)                            7144.01774942643 	(obj:0)
STE(6,95)                            1093.50020222237 	(obj:0)
STE(6,96)                            2511.30386577231 	(obj:0)
STE(6,97)                            2751.75010111118 	(obj:0)
STE(6,98)                            4169.55376466112 	(obj:0)
STE(6,99)                            2751.75010111118 	(obj:0)
STE(6,100)                           4169.55376466112 	(obj:0)
STE(6,101)                                       4410 	(obj:0)
STE(6,102)                           5827.80366354994 	(obj:0)
STE(6,103)                           2751.75010111118 	(obj:0)
STE(6,104)                           4169.55376466112 	(obj:0)
STE(6,105)                           4410.00000000006 	(obj:0)
STE(6,106)                              5827.80366355 	(obj:0)
STE(6,107)                           4409.99999999999 	(obj:0)
STE(6,108)                           5827.80366354992 	(obj:0)
STE(6,109)                           6068.24989887816 	(obj:0)
STE(6,110)                            7486.0535624281 	(obj:0)
STE(6,111)                           2409.71428809885 	(obj:0)
STE(6,112)                           3827.51795164879 	(obj:0)
STE(6,113)                           4067.96418698773 	(obj:0)
STE(6,114)                           5485.76785053767 	(obj:0)
STE(6,115)                           4067.96418698766 	(obj:0)
STE(6,116)                           5485.76785053759 	(obj:0)
STE(6,117)                           5726.21408587647 	(obj:0)
STE(6,118)                           7144.01774942641 	(obj:0)
STE(6,119)                             4067.964186988 	(obj:0)
STE(6,120)                           5485.76785053794 	(obj:0)
STE(6,121)                           5726.21408587688 	(obj:0)
STE(6,122)                           7144.01774942682 	(obj:0)
STE(6,123)                           5726.21408587682 	(obj:0)
STE(6,124)                           7144.01774942676 	(obj:0)
STE(6,125)                           7384.46398476564 	(obj:0)
STE(6,126)                           8802.26764831558 	(obj:0)
BG(5)                                723.522421037825 	(obj:10)
AVE(1)                               3259.55177567504 	(obj:0)
WB(2)                                586.145949265989 	(obj:0)
AVE(2)                               3259.55588804169 	(obj:0)
AVE(3)                               3579.36165209166 	(obj:0)
AVE(4)                               3579.36576445831 	(obj:0)
AVE(5)                               3472.77007794174 	(obj:0)
WB(6)                                823.766689586164 	(obj:0)
AVE(6)                                3046.3618950668 	(obj:0)
y2(6,97)                             352.894630409789 	(obj:0)
WG(1)                                3259.55177567504 	(obj:10)
WG(2)                                 2673.4099387757 	(obj:10)
WG(3)                                3579.36165209187 	(obj:10)
WG(4)                                3579.36576445831 	(obj:10)
WG(5)                                3472.77007794174 	(obj:10)
WG(6)                                2222.59520548064 	(obj:10)
BG(1)                                936.740723304552 	(obj:10)
BG(3)                                616.930846888002 	(obj:10)
BG(4)                                616.926734521258 	(obj:10)
y1(1,1)                              1492.42490899992 	(obj:0)
y1(3,7)                              1492.42490900023 	(obj:0)
y1(3,9)                              1492.42490900023 	(obj:0)
y1(3,11)                             1492.42490900023 	(obj:0)
y1(3,13)                             1492.42490900023 	(obj:0)
y1(4,15)                             1492.42490899992 	(obj:0)
y1(4,17)                             1492.42490899992 	(obj:0)
y1(4,19)                             1492.42490899992 	(obj:0)
y1(4,21)                             1492.42490899992 	(obj:0)
y1(4,23)                             1492.42490899992 	(obj:0)
y1(4,25)                             1492.42490899992 	(obj:0)
y1(4,27)                             1492.42490899992 	(obj:0)
y1(4,29)                             1492.42490899992 	(obj:0)
y1(5,31)                             1492.42490899994 	(obj:0)
y1(5,33)                             1492.42490899994 	(obj:0)
y1(5,35)                             1492.42490899994 	(obj:0)
y1(5,37)                             1492.42490899994 	(obj:0)
y1(5,39)                             1492.42490899994 	(obj:0)
y1(5,41)                             1492.42490899994 	(obj:0)
y1(5,43)                             1492.42490899994 	(obj:0)
y1(5,45)                             1492.42490899994 	(obj:0)
y1(5,47)                             1492.42490899994 	(obj:0)
y1(5,49)                             1492.42490899994 	(obj:0)
y1(5,51)                             1492.42490899994 	(obj:0)
y1(5,53)                             1492.42490899994 	(obj:0)
y1(5,54)                          9.582145139575e-009 	(obj:0)
y1(5,55)                             1492.42490899994 	(obj:0)
y1(5,57)                             1492.42490899994 	(obj:0)
y1(5,59)                             1492.42490899994 	(obj:0)
y1(5,61)                             1492.42490899994 	(obj:0)
y2(2,4)                              1385.48851144876 	(obj:0)
y2(2,6)                              1385.48851144876 	(obj:0)
y2(6,63)                             352.894630409789 	(obj:0)
y2(6,64)                             1845.31953940973 	(obj:0)
y2(6,65)                             352.894630409789 	(obj:0)
y2(6,66)                             1845.31953940973 	(obj:0)
y2(6,67)                             352.894630409789 	(obj:0)
y2(6,68)                             1845.31953940973 	(obj:0)
y2(6,69)                             352.894630409789 	(obj:0)
y2(6,70)                             1845.31953940973 	(obj:0)
y2(6,71)                             352.894630409789 	(obj:0)
y2(6,72)                             1845.31953940973 	(obj:0)
y2(6,73)                             352.894630409789 	(obj:0)
y2(6,74)                             1845.31953940973 	(obj:0)
y2(6,75)                             352.894630409789 	(obj:0)
y2(6,76)                             1845.31953940973 	(obj:0)
y2(6,77)                             352.894630409789 	(obj:0)
y2(6,78)                             1845.31953940973 	(obj:0)
y2(6,79)                             352.894630409789 	(obj:0)
y2(6,80)                             1845.31953940973 	(obj:0)
y2(6,81)                             352.894630409789 	(obj:0)
y2(6,82)                             1845.31953940973 	(obj:0)
y2(6,83)                             352.894630409789 	(obj:0)
y2(6,84)                             1845.31953940973 	(obj:0)
y2(6,85)                             352.894630409789 	(obj:0)
y2(6,86)                             1845.31953940973 	(obj:0)
y2(6,87)                             352.894630409789 	(obj:0)
y2(6,88)                             1845.31953940973 	(obj:0)
y2(6,89)                             352.894630409789 	(obj:0)
y2(6,90)                             1845.31953940973 	(obj:0)
y2(6,91)                             352.894630409789 	(obj:0)
y2(6,92)                             1845.31953940973 	(obj:0)
y2(6,93)                             352.894630409789 	(obj:0)
y2(6,94)                             1845.31953940973 	(obj:0)
y2(6,95)                             352.894630409789 	(obj:0)
y2(6,96)                             1845.31953940973 	(obj:0)
y2(6,98)                             1845.31953940973 	(obj:0)
